n = 11;
budget = 250000;
groceries = [|140,290,130,59,3994|95,55,135,190,1843|49,245,14,84,3047|28,476,7,158,3563|6,126,180,70,2484|21,308,189,194,2842|45,160,235,116,929|24,120,336,51,3466|70,100,170,186,1631|90,477,99,71,1029|80,496,184,109,3234|];
requirements = [|760,920|4000,4000|1140,1240|];
offset = [|76,184|2000,2600|285,434|];
variety = 42;